c clasp version 2.1.1
c Reading from p33.cnf
c Solving...
s SATISFIABLE

c Models        : 1+    
c Time          : 1.089s (Solving: 0.30s 1st Model: 0.30s Unsat: 0.00s)
c CPU Time      : 1.080s
c Choices       : 15017
c Conflicts     : 1859
c Restarts      : 5      (Average: 371.80 Last: 121)

c Variables     : 227631 (Eliminated: 71486 Frozen:    0)
c Constraints   : 262643 (Binary: 64.5% Ternary: 34.1% Other:  1.3%)
c Lemmas        : 1859   (Binary:  0.1% Ternary:  1.7% Other: 98.3%)
c   Conflict    : 1859   (Average Length: 114.1) 
c   Loop        : 0      (Average Length: 0.0) 
c   Other       : 0      (Average Length: 0.0)
c   Deleted     : 0     
